(set-logic QF_BV)
(set-info :source |Converted by Dunbo Cai. dunbocai@gmail.com|)
(set-info :smt-lib-version 2.0)
(set-info :category "convex body with variables with domain [-15, 15]")
(declare-fun x_0 () (_ BitVec 32))
(declare-fun x_1 () (_ BitVec 32))
(declare-fun x_2 () (_ BitVec 32))
(declare-fun x_3 () (_ BitVec 32))
(declare-fun x_4 () (_ BitVec 32))
(declare-fun x_5 () (_ BitVec 32))
(declare-fun x_6 () (_ BitVec 32))
(assert (bvsge x_0 (bvsub (_ bv0 32) (_ bv15 32))) )
(assert (bvsle x_0 (_ bv15 32)) )
(assert (bvsge x_1 (bvsub (_ bv0 32) (_ bv15 32))) )
(assert (bvsle x_1 (_ bv15 32)) )
(assert (bvsge x_2 (bvsub (_ bv0 32) (_ bv15 32))) )
(assert (bvsle x_2 (_ bv15 32)) )
(assert (bvsge x_3 (bvsub (_ bv0 32) (_ bv15 32))) )
(assert (bvsle x_3 (_ bv15 32)) )
(assert (bvsge x_4 (bvsub (_ bv0 32) (_ bv15 32))) )
(assert (bvsle x_4 (_ bv15 32)) )
(assert (bvsge x_5 (bvsub (_ bv0 32) (_ bv15 32))) )
(assert (bvsle x_5 (_ bv15 32)) )
(assert (bvsge x_6 (bvsub (_ bv0 32) (_ bv15 32))) )
(assert (bvsle x_6 (_ bv15 32)) )
(assert (bvsle (bvadd (bvmul (bvsdiv (_ bv7 32) (_ bv1 32) ) x_0 )(bvmul (bvsdiv (_ bv9 32) (_ bv1 32) ) x_1 )(bvmul (bvsub (_ bv0 32) (bvsdiv (_ bv18 32) (_ bv1 32) )) x_2 )(bvmul (bvsdiv (_ bv9 32) (_ bv1 32) ) x_3 )(bvmul (bvsub (_ bv0 32) (bvsdiv (_ bv9 32) (_ bv1 32) )) x_5 )) (bvmul (bvsdiv (_ bv140 32) (_ bv1 32) ) (_ bv1 32) ) )) 
(assert (bvsle (bvadd (bvmul (bvsdiv (_ bv9 32) (_ bv1 32) ) x_0 )(bvmul (bvsub (_ bv0 32) (bvsdiv (_ bv10 32) (_ bv1 32) )) x_1 )(bvmul (bvsdiv (_ bv12 32) (_ bv1 32) ) x_2 )(bvmul (bvsub (_ bv0 32) (bvsdiv (_ bv18 32) (_ bv1 32) )) x_3 )(bvmul (bvsub (_ bv0 32) (bvsdiv (_ bv10 32) (_ bv1 32) )) x_4 )(bvmul (bvsub (_ bv0 32) (bvsdiv (_ bv5 32) (_ bv1 32) )) x_5 )) (bvmul (bvsdiv (_ bv61 32) (_ bv1 32) ) (_ bv1 32) ) )) 
(assert (bvsle (bvadd (bvmul (bvsub (_ bv0 32) (bvsdiv (_ bv10 32) (_ bv1 32) )) x_1 )(bvmul (bvsub (_ bv0 32) (bvsdiv (_ bv10 32) (_ bv1 32) )) x_3 )(bvmul (bvsub (_ bv0 32) (bvsdiv (_ bv3 32) (_ bv1 32) )) x_4 )(bvmul (bvsdiv (_ bv6 32) (_ bv1 32) ) x_5 )) (bvmul (bvsub (_ bv0 32) (bvsdiv (_ bv46 32) (_ bv1 32) )) (_ bv1 32) ) )) 
(assert (bvsle (bvadd (bvmul (bvsdiv (_ bv315 32) (_ bv1 32) ) x_1 )(bvmul (bvsub (_ bv0 32) (bvsdiv (_ bv1400 32) (_ bv1 32) )) x_3 )(bvmul (bvsub (_ bv0 32) (bvsdiv (_ bv1200 32) (_ bv1 32) )) x_4 )(bvmul (bvsdiv (_ bv700 32) (_ bv1 32) ) x_5 )(bvmul (bvsub (_ bv0 32) (bvsdiv (_ bv252 32) (_ bv1 32) )) x_6 )) (bvmul (bvsdiv (_ bv15503 32) (_ bv1 32) ) (_ bv1 32) ) )) 
(assert (bvsle (bvadd (bvmul (bvsdiv (_ bv360 32) (_ bv1 32) ) x_0 )(bvmul (bvsdiv (_ bv100 32) (_ bv1 32) ) x_1 )(bvmul (bvsub (_ bv0 32) (bvsdiv (_ bv15 32) (_ bv1 32) )) x_3 )(bvmul (bvsdiv (_ bv144 32) (_ bv1 32) ) x_4 )(bvmul (bvsdiv (_ bv420 32) (_ bv1 32) ) x_5 )(bvmul (bvsdiv (_ bv216 32) (_ bv1 32) ) x_6 )) (bvmul (bvsub (_ bv0 32) (bvsdiv (_ bv1765 32) (_ bv1 32) )) (_ bv1 32) ) )) 
(assert (bvsle (bvadd (bvmul (bvsdiv (_ bv72 32) (_ bv1 32) ) x_0 )(bvmul (bvsub (_ bv0 32) (bvsdiv (_ bv80 32) (_ bv1 32) )) x_1 )(bvmul (bvsub (_ bv0 32) (bvsdiv (_ bv5 32) (_ bv1 32) )) x_2 )(bvmul (bvsub (_ bv0 32) (bvsdiv (_ bv160 32) (_ bv1 32) )) x_6 )) (bvmul (bvsdiv (_ bv984 32) (_ bv1 32) ) (_ bv1 32) ) )) 
(assert (bvsle (bvadd (bvmul (bvsdiv (_ bv210 32) (_ bv1 32) ) x_0 )(bvmul (bvsub (_ bv0 32) (bvsdiv (_ bv2520 32) (_ bv1 32) )) x_1 )(bvmul (bvsdiv (_ bv360 32) (_ bv1 32) ) x_3 )(bvmul (bvsdiv (_ bv420 32) (_ bv1 32) ) x_4 )(bvmul (bvsdiv (_ bv126 32) (_ bv1 32) ) x_5 )(bvmul (bvsub (_ bv0 32) (bvsdiv (_ bv245 32) (_ bv1 32) )) x_6 )) (bvmul (bvsub (_ bv0 32) (bvsdiv (_ bv19855 32) (_ bv1 32) )) (_ bv1 32) ) )) 
(assert (bvsle (bvadd (bvmul (bvsdiv (_ bv105 32) (_ bv1 32) ) x_1 )(bvmul (bvsdiv (_ bv560 32) (_ bv1 32) ) x_2 )(bvmul (bvsub (_ bv0 32) (bvsdiv (_ bv100 32) (_ bv1 32) )) x_3 )(bvmul (bvsdiv (_ bv56 32) (_ bv1 32) ) x_4 )(bvmul (bvsub (_ bv0 32) (bvsdiv (_ bv70 32) (_ bv1 32) )) x_5 )) (bvmul (bvsdiv (_ bv2298 32) (_ bv1 32) ) (_ bv1 32) ) )) 
(assert (bvsle (bvadd (bvmul (bvsub (_ bv0 32) (bvsdiv (_ bv5 32) (_ bv1 32) )) x_1 )(bvmul (bvsub (_ bv0 32) (bvsdiv (_ bv2 32) (_ bv1 32) )) x_3 )(bvmul (bvsdiv (_ bv6 32) (_ bv1 32) ) x_5 )) (bvmul (bvsub (_ bv0 32) (bvsdiv (_ bv55 32) (_ bv1 32) )) (_ bv1 32) ) )) 
(assert (bvsle (bvadd (bvmul (bvsub (_ bv0 32) (bvsdiv (_ bv12 32) (_ bv1 32) )) x_0 )(bvmul (bvsdiv (_ bv5 32) (_ bv1 32) ) x_5 )) (bvmul (bvsub (_ bv0 32) (bvsdiv (_ bv49 32) (_ bv1 32) )) (_ bv1 32) ) )) 
(assert (bvsle (bvadd (bvmul (bvsdiv (_ bv2880 32) (_ bv1 32) ) x_0 )(bvmul (bvsub (_ bv0 32) (bvsdiv (_ bv8400 32) (_ bv1 32) )) x_1 )(bvmul (bvsub (_ bv0 32) (bvsdiv (_ bv1400 32) (_ bv1 32) )) x_2 )(bvmul (bvsdiv (_ bv2160 32) (_ bv1 32) ) x_3 )(bvmul (bvsdiv (_ bv1512 32) (_ bv1 32) ) x_4 )(bvmul (bvsub (_ bv0 32) (bvsdiv (_ bv1960 32) (_ bv1 32) )) x_5 )(bvmul (bvsub (_ bv0 32) (bvsdiv (_ bv315 32) (_ bv1 32) )) x_6 )) (bvmul (bvsub (_ bv0 32) (bvsdiv (_ bv54619 32) (_ bv1 32) )) (_ bv1 32) ) )) 

(check-sat)
(exit)